\ENCODING=ISO-8859-1
\Problem name: burma14

Minimize
 obj1: x(1,1) + 154 x(1,2) + 560 x(1,3) + 707 x(1,4) + 967 x(1,5) + 582 x(1,6)
       + 456 x(1,7) + 71 x(1,8) + 161 x(1,9) + 372 x(1,10) + 170 x(1,11)
       + 501 x(1,12) + 342 x(1,13) + 427 x(1,14) + 154 x(2,1) + x(2,2)
       + 459 x(2,3) + 664 x(2,4) + 998 x(2,5) + 599 x(2,6) + 508 x(2,7)
       + 197 x(2,8) + 312 x(2,9) + 479 x(2,10) + 317 x(2,11) + 496 x(2,12)
       + 417 x(2,13) + 379 x(2,14) + 560 x(3,1) + 459 x(3,2) + x(3,3)
       + 314 x(3,4) + 789 x(3,5) + 451 x(3,6) + 507 x(3,7) + 548 x(3,8)
       + 701 x(3,9) + 928 x(3,10) + 721 x(3,11) + 343 x(3,12) + 525 x(3,13)
       + 212 x(3,14) + 707 x(4,1) + 664 x(4,2) + 314 x(4,3) + x(4,4)
       + 491 x(4,5) + 265 x(4,6) + 411 x(4,7) + 664 x(4,8) + 805 x(4,9)
       + 1070 x(4,10) + 832 x(4,11) + 239 x(4,12) + 500 x(4,13) + 287 x(4,14)
       + 967 x(5,1) + 998 x(5,2) + 789 x(5,3) + 491 x(5,4) + x(5,5)
       + 401 x(5,6) + 514 x(5,7) + 902 x(5,8) + 990 x(5,9) + 1262 x(5,10)
       + 1022 x(5,11) + 513 x(5,12) + 636 x(5,13) + 667 x(5,14) + 582 x(6,1)
       + 599 x(6,2) + 451 x(6,3) + 265 x(6,4) + 401 x(6,5) + x(6,6)
       + 168 x(6,7) + 522 x(6,8) + 635 x(6,9) + 910 x(6,10) + 665 x(6,11)
       + 120 x(6,12) + 285 x(6,13) + 281 x(6,14) + 456 x(7,1) + 508 x(7,2)
       + 507 x(7,3) + 411 x(7,4) + 514 x(7,5) + 168 x(7,6) + x(7,7)
       + 389 x(7,8) + 482 x(7,9) + 757 x(7,10) + 513 x(7,11) + 185 x(7,12)
       + 125 x(7,13) + 300 x(7,14) + 71 x(8,1) + 197 x(8,2) + 548 x(8,3)
       + 664 x(8,4) + 902 x(8,5) + 522 x(8,6) + 389 x(8,7) + x(8,8)
       + 155 x(8,9) + 407 x(8,10) + 176 x(8,11) + 449 x(8,12) + 274 x(8,13)
       + 393 x(8,14) + 161 x(9,1) + 312 x(9,2) + 701 x(9,3) + 805 x(9,4)
       + 990 x(9,5) + 635 x(9,6) + 482 x(9,7) + 155 x(9,8) + x(9,9)
       + 277 x(9,10) + 33 x(9,11) + 578 x(9,12) + 358 x(9,13) + 542 x(9,14)
       + 372 x(10,1) + 479 x(10,2) + 928 x(10,3) + 1070 x(10,4) + 1262 x(10,5)
       + 910 x(10,6) + 757 x(10,7) + 407 x(10,8) + 277 x(10,9) + x(10,10)
       + 246 x(10,11) + 850 x(10,12) + 633 x(10,13) + 796 x(10,14)
       + 170 x(11,1) + 317 x(11,2) + 721 x(11,3) + 832 x(11,4) + 1022 x(11,5)
       + 665 x(11,6) + 513 x(11,7) + 176 x(11,8) + 33 x(11,9) + 246 x(11,10)
       + x(11,11) + 607 x(11,12) + 389 x(11,13) + 566 x(11,14) + 501 x(12,1)
       + 496 x(12,2) + 343 x(12,3) + 239 x(12,4) + 513 x(12,5) + 120 x(12,6)
       + 185 x(12,7) + 449 x(12,8) + 578 x(12,9) + 850 x(12,10) + 607 x(12,11)
       + x(12,12) + 261 x(12,13) + 162 x(12,14) + 342 x(13,1) + 417 x(13,2)
       + 525 x(13,3) + 500 x(13,4) + 636 x(13,5) + 285 x(13,6) + 125 x(13,7)
       + 274 x(13,8) + 358 x(13,9) + 633 x(13,10) + 389 x(13,11) + 261 x(13,12)
       + x(13,13) + 316 x(13,14) + 427 x(14,1) + 379 x(14,2) + 212 x(14,3)
       + 287 x(14,4) + 667 x(14,5) + 281 x(14,6) + 300 x(14,7) + 393 x(14,8)
       + 542 x(14,9) + 796 x(14,10) + 566 x(14,11) + 162 x(14,12)
       + 316 x(14,13) + x(14,14) + 0 u(1)
Subject To
 degree(1):       x(1,2) + x(1,3) + x(1,4) + x(1,5) + x(1,6) + x(1,7) + x(1,8)
                  + x(1,9) + x(1,10) + x(1,11) + x(1,12) + x(1,13) + x(1,14)
                   = 1
 degree(2):       x(2,1) + x(2,3) + x(2,4) + x(2,5) + x(2,6) + x(2,7) + x(2,8)
                  + x(2,9) + x(2,10) + x(2,11) + x(2,12) + x(2,13) + x(2,14)
                   = 1
 degree(3):       x(3,1) + x(3,2) + x(3,4) + x(3,5) + x(3,6) + x(3,7) + x(3,8)
                  + x(3,9) + x(3,10) + x(3,11) + x(3,12) + x(3,13) + x(3,14)
                   = 1
 degree(4):       x(4,1) + x(4,2) + x(4,3) + x(4,5) + x(4,6) + x(4,7) + x(4,8)
                  + x(4,9) + x(4,10) + x(4,11) + x(4,12) + x(4,13) + x(4,14)
                   = 1
 degree(5):       x(5,1) + x(5,2) + x(5,3) + x(5,4) + x(5,6) + x(5,7) + x(5,8)
                  + x(5,9) + x(5,10) + x(5,11) + x(5,12) + x(5,13) + x(5,14)
                   = 1
 degree(6):       x(6,1) + x(6,2) + x(6,3) + x(6,4) + x(6,5) + x(6,7) + x(6,8)
                  + x(6,9) + x(6,10) + x(6,11) + x(6,12) + x(6,13) + x(6,14)
                   = 1
 degree(7):       x(7,1) + x(7,2) + x(7,3) + x(7,4) + x(7,5) + x(7,6) + x(7,8)
                  + x(7,9) + x(7,10) + x(7,11) + x(7,12) + x(7,13) + x(7,14)
                   = 1
 degree(8):       x(8,1) + x(8,2) + x(8,3) + x(8,4) + x(8,5) + x(8,6) + x(8,7)
                  + x(8,9) + x(8,10) + x(8,11) + x(8,12) + x(8,13) + x(8,14)
                   = 1
 degree(9):       x(9,1) + x(9,2) + x(9,3) + x(9,4) + x(9,5) + x(9,6) + x(9,7)
                  + x(9,8) + x(9,10) + x(9,11) + x(9,12) + x(9,13) + x(9,14)
                   = 1
 degree(10):      x(10,1) + x(10,2) + x(10,3) + x(10,4) + x(10,5) + x(10,6)
                  + x(10,7) + x(10,8) + x(10,9) + x(10,11) + x(10,12)
                  + x(10,13) + x(10,14)  = 1
 degree(11):      x(11,1) + x(11,2) + x(11,3) + x(11,4) + x(11,5) + x(11,6)
                  + x(11,7) + x(11,8) + x(11,9) + x(11,10) + x(11,12)
                  + x(11,13) + x(11,14)  = 1
 degree(12):      x(12,1) + x(12,2) + x(12,3) + x(12,4) + x(12,5) + x(12,6)
                  + x(12,7) + x(12,8) + x(12,9) + x(12,10) + x(12,11)
                  + x(12,13) + x(12,14)  = 1
 degree(13):      x(13,1) + x(13,2) + x(13,3) + x(13,4) + x(13,5) + x(13,6)
                  + x(13,7) + x(13,8) + x(13,9) + x(13,10) + x(13,11)
                  + x(13,12) + x(13,14)  = 1
 degree(14):      x(14,1) + x(14,2) + x(14,3) + x(14,4) + x(14,5) + x(14,6)
                  + x(14,7) + x(14,8) + x(14,9) + x(14,10) + x(14,11)
                  + x(14,12) + x(14,13)  = 1
 degree(15):      x(2,1) + x(3,1) + x(4,1) + x(5,1) + x(6,1) + x(7,1) + x(8,1)
                  + x(9,1) + x(10,1) + x(11,1) + x(12,1) + x(13,1) + x(14,1)
                   = 1
 degree(16):      x(1,2) + x(3,2) + x(4,2) + x(5,2) + x(6,2) + x(7,2) + x(8,2)
                  + x(9,2) + x(10,2) + x(11,2) + x(12,2) + x(13,2) + x(14,2)
                   = 1
 degree(17):      x(1,3) + x(2,3) + x(4,3) + x(5,3) + x(6,3) + x(7,3) + x(8,3)
                  + x(9,3) + x(10,3) + x(11,3) + x(12,3) + x(13,3) + x(14,3)
                   = 1
 degree(18):      x(1,4) + x(2,4) + x(3,4) + x(5,4) + x(6,4) + x(7,4) + x(8,4)
                  + x(9,4) + x(10,4) + x(11,4) + x(12,4) + x(13,4) + x(14,4)
                   = 1
 degree(19):      x(1,5) + x(2,5) + x(3,5) + x(4,5) + x(6,5) + x(7,5) + x(8,5)
                  + x(9,5) + x(10,5) + x(11,5) + x(12,5) + x(13,5) + x(14,5)
                   = 1
 degree(20):      x(1,6) + x(2,6) + x(3,6) + x(4,6) + x(5,6) + x(7,6) + x(8,6)
                  + x(9,6) + x(10,6) + x(11,6) + x(12,6) + x(13,6) + x(14,6)
                   = 1
 degree(21):      x(1,7) + x(2,7) + x(3,7) + x(4,7) + x(5,7) + x(6,7) + x(8,7)
                  + x(9,7) + x(10,7) + x(11,7) + x(12,7) + x(13,7) + x(14,7)
                   = 1
 degree(22):      x(1,8) + x(2,8) + x(3,8) + x(4,8) + x(5,8) + x(6,8) + x(7,8)
                  + x(9,8) + x(10,8) + x(11,8) + x(12,8) + x(13,8) + x(14,8)
                   = 1
 degree(23):      x(1,9) + x(2,9) + x(3,9) + x(4,9) + x(5,9) + x(6,9) + x(7,9)
                  + x(8,9) + x(10,9) + x(11,9) + x(12,9) + x(13,9) + x(14,9)
                   = 1
 degree(24):      x(1,10) + x(2,10) + x(3,10) + x(4,10) + x(5,10) + x(6,10)
                  + x(7,10) + x(8,10) + x(9,10) + x(11,10) + x(12,10)
                  + x(13,10) + x(14,10)  = 1
 degree(25):      x(1,11) + x(2,11) + x(3,11) + x(4,11) + x(5,11) + x(6,11)
                  + x(7,11) + x(8,11) + x(9,11) + x(10,11) + x(12,11)
                  + x(13,11) + x(14,11)  = 1
 degree(26):      x(1,12) + x(2,12) + x(3,12) + x(4,12) + x(5,12) + x(6,12)
                  + x(7,12) + x(8,12) + x(9,12) + x(10,12) + x(11,12)
                  + x(13,12) + x(14,12)  = 1
 degree(27):      x(1,13) + x(2,13) + x(3,13) + x(4,13) + x(5,13) + x(6,13)
                  + x(7,13) + x(8,13) + x(9,13) + x(10,13) + x(11,13)
                  + x(12,13) + x(14,13)  = 1
 degree(28):      x(1,14) + x(2,14) + x(3,14) + x(4,14) + x(5,14) + x(6,14)
                  + x(7,14) + x(8,14) + x(9,14) + x(10,14) + x(11,14)
                  + x(12,14) + x(13,14)  = 1
 constraint(1):   13 x(2,3) + u(2) - u(3) <= 12
 constraint(2):   13 x(2,4) + u(2) - u(4) <= 12
 constraint(3):   13 x(2,5) + u(2) - u(5) <= 12
 constraint(4):   13 x(2,6) + u(2) - u(6) <= 12
 constraint(5):   13 x(2,7) + u(2) - u(7) <= 12
 constraint(6):   13 x(2,8) + u(2) - u(8) <= 12
 constraint(7):   13 x(2,9) + u(2) - u(9) <= 12
 constraint(8):   13 x(2,10) + u(2) - u(10) <= 12
 constraint(9):   13 x(2,11) + u(2) - u(11) <= 12
 constraint(10):  13 x(2,12) + u(2) - u(12) <= 12
 constraint(11):  13 x(2,13) + u(2) - u(13) <= 12
 constraint(12):  13 x(2,14) + u(2) - u(14) <= 12
 constraint(13):  13 x(3,2) - u(2) + u(3) <= 12
 constraint(14):  13 x(3,4) + u(3) - u(4) <= 12
 constraint(15):  13 x(3,5) + u(3) - u(5) <= 12
 constraint(16):  13 x(3,6) + u(3) - u(6) <= 12
 constraint(17):  13 x(3,7) + u(3) - u(7) <= 12
 constraint(18):  13 x(3,8) + u(3) - u(8) <= 12
 constraint(19):  13 x(3,9) + u(3) - u(9) <= 12
 constraint(20):  13 x(3,10) + u(3) - u(10) <= 12
 constraint(21):  13 x(3,11) + u(3) - u(11) <= 12
 constraint(22):  13 x(3,12) + u(3) - u(12) <= 12
 constraint(23):  13 x(3,13) + u(3) - u(13) <= 12
 constraint(24):  13 x(3,14) + u(3) - u(14) <= 12
 constraint(25):  13 x(4,2) - u(2) + u(4) <= 12
 constraint(26):  13 x(4,3) - u(3) + u(4) <= 12
 constraint(27):  13 x(4,5) + u(4) - u(5) <= 12
 constraint(28):  13 x(4,6) + u(4) - u(6) <= 12
 constraint(29):  13 x(4,7) + u(4) - u(7) <= 12
 constraint(30):  13 x(4,8) + u(4) - u(8) <= 12
 constraint(31):  13 x(4,9) + u(4) - u(9) <= 12
 constraint(32):  13 x(4,10) + u(4) - u(10) <= 12
 constraint(33):  13 x(4,11) + u(4) - u(11) <= 12
 constraint(34):  13 x(4,12) + u(4) - u(12) <= 12
 constraint(35):  13 x(4,13) + u(4) - u(13) <= 12
 constraint(36):  13 x(4,14) + u(4) - u(14) <= 12
 constraint(37):  13 x(5,2) - u(2) + u(5) <= 12
 constraint(38):  13 x(5,3) - u(3) + u(5) <= 12
 constraint(39):  13 x(5,4) - u(4) + u(5) <= 12
 constraint(40):  13 x(5,6) + u(5) - u(6) <= 12
 constraint(41):  13 x(5,7) + u(5) - u(7) <= 12
 constraint(42):  13 x(5,8) + u(5) - u(8) <= 12
 constraint(43):  13 x(5,9) + u(5) - u(9) <= 12
 constraint(44):  13 x(5,10) + u(5) - u(10) <= 12
 constraint(45):  13 x(5,11) + u(5) - u(11) <= 12
 constraint(46):  13 x(5,12) + u(5) - u(12) <= 12
 constraint(47):  13 x(5,13) + u(5) - u(13) <= 12
 constraint(48):  13 x(5,14) + u(5) - u(14) <= 12
 constraint(49):  13 x(6,2) - u(2) + u(6) <= 12
 constraint(50):  13 x(6,3) - u(3) + u(6) <= 12
 constraint(51):  13 x(6,4) - u(4) + u(6) <= 12
 constraint(52):  13 x(6,5) - u(5) + u(6) <= 12
 constraint(53):  13 x(6,7) + u(6) - u(7) <= 12
 constraint(54):  13 x(6,8) + u(6) - u(8) <= 12
 constraint(55):  13 x(6,9) + u(6) - u(9) <= 12
 constraint(56):  13 x(6,10) + u(6) - u(10) <= 12
 constraint(57):  13 x(6,11) + u(6) - u(11) <= 12
 constraint(58):  13 x(6,12) + u(6) - u(12) <= 12
 constraint(59):  13 x(6,13) + u(6) - u(13) <= 12
 constraint(60):  13 x(6,14) + u(6) - u(14) <= 12
 constraint(61):  13 x(7,2) - u(2) + u(7) <= 12
 constraint(62):  13 x(7,3) - u(3) + u(7) <= 12
 constraint(63):  13 x(7,4) - u(4) + u(7) <= 12
 constraint(64):  13 x(7,5) - u(5) + u(7) <= 12
 constraint(65):  13 x(7,6) - u(6) + u(7) <= 12
 constraint(66):  13 x(7,8) + u(7) - u(8) <= 12
 constraint(67):  13 x(7,9) + u(7) - u(9) <= 12
 constraint(68):  13 x(7,10) + u(7) - u(10) <= 12
 constraint(69):  13 x(7,11) + u(7) - u(11) <= 12
 constraint(70):  13 x(7,12) + u(7) - u(12) <= 12
 constraint(71):  13 x(7,13) + u(7) - u(13) <= 12
 constraint(72):  13 x(7,14) + u(7) - u(14) <= 12
 constraint(73):  13 x(8,2) - u(2) + u(8) <= 12
 constraint(74):  13 x(8,3) - u(3) + u(8) <= 12
 constraint(75):  13 x(8,4) - u(4) + u(8) <= 12
 constraint(76):  13 x(8,5) - u(5) + u(8) <= 12
 constraint(77):  13 x(8,6) - u(6) + u(8) <= 12
 constraint(78):  13 x(8,7) - u(7) + u(8) <= 12
 constraint(79):  13 x(8,9) + u(8) - u(9) <= 12
 constraint(80):  13 x(8,10) + u(8) - u(10) <= 12
 constraint(81):  13 x(8,11) + u(8) - u(11) <= 12
 constraint(82):  13 x(8,12) + u(8) - u(12) <= 12
 constraint(83):  13 x(8,13) + u(8) - u(13) <= 12
 constraint(84):  13 x(8,14) + u(8) - u(14) <= 12
 constraint(85):  13 x(9,2) - u(2) + u(9) <= 12
 constraint(86):  13 x(9,3) - u(3) + u(9) <= 12
 constraint(87):  13 x(9,4) - u(4) + u(9) <= 12
 constraint(88):  13 x(9,5) - u(5) + u(9) <= 12
 constraint(89):  13 x(9,6) - u(6) + u(9) <= 12
 constraint(90):  13 x(9,7) - u(7) + u(9) <= 12
 constraint(91):  13 x(9,8) - u(8) + u(9) <= 12
 constraint(92):  13 x(9,10) + u(9) - u(10) <= 12
 constraint(93):  13 x(9,11) + u(9) - u(11) <= 12
 constraint(94):  13 x(9,12) + u(9) - u(12) <= 12
 constraint(95):  13 x(9,13) + u(9) - u(13) <= 12
 constraint(96):  13 x(9,14) + u(9) - u(14) <= 12
 constraint(97):  13 x(10,2) - u(2) + u(10) <= 12
 constraint(98):  13 x(10,3) - u(3) + u(10) <= 12
 constraint(99):  13 x(10,4) - u(4) + u(10) <= 12
 constraint(100): 13 x(10,5) - u(5) + u(10) <= 12
 constraint(101): 13 x(10,6) - u(6) + u(10) <= 12
 constraint(102): 13 x(10,7) - u(7) + u(10) <= 12
 constraint(103): 13 x(10,8) - u(8) + u(10) <= 12
 constraint(104): 13 x(10,9) - u(9) + u(10) <= 12
 constraint(105): 13 x(10,11) + u(10) - u(11) <= 12
 constraint(106): 13 x(10,12) + u(10) - u(12) <= 12
 constraint(107): 13 x(10,13) + u(10) - u(13) <= 12
 constraint(108): 13 x(10,14) + u(10) - u(14) <= 12
 constraint(109): 13 x(11,2) - u(2) + u(11) <= 12
 constraint(110): 13 x(11,3) - u(3) + u(11) <= 12
 constraint(111): 13 x(11,4) - u(4) + u(11) <= 12
 constraint(112): 13 x(11,5) - u(5) + u(11) <= 12
 constraint(113): 13 x(11,6) - u(6) + u(11) <= 12
 constraint(114): 13 x(11,7) - u(7) + u(11) <= 12
 constraint(115): 13 x(11,8) - u(8) + u(11) <= 12
 constraint(116): 13 x(11,9) - u(9) + u(11) <= 12
 constraint(117): 13 x(11,10) - u(10) + u(11) <= 12
 constraint(118): 13 x(11,12) + u(11) - u(12) <= 12
 constraint(119): 13 x(11,13) + u(11) - u(13) <= 12
 constraint(120): 13 x(11,14) + u(11) - u(14) <= 12
 constraint(121): 13 x(12,2) - u(2) + u(12) <= 12
 constraint(122): 13 x(12,3) - u(3) + u(12) <= 12
 constraint(123): 13 x(12,4) - u(4) + u(12) <= 12
 constraint(124): 13 x(12,5) - u(5) + u(12) <= 12
 constraint(125): 13 x(12,6) - u(6) + u(12) <= 12
 constraint(126): 13 x(12,7) - u(7) + u(12) <= 12
 constraint(127): 13 x(12,8) - u(8) + u(12) <= 12
 constraint(128): 13 x(12,9) - u(9) + u(12) <= 12
 constraint(129): 13 x(12,10) - u(10) + u(12) <= 12
 constraint(130): 13 x(12,11) - u(11) + u(12) <= 12
 constraint(131): 13 x(12,13) + u(12) - u(13) <= 12
 constraint(132): 13 x(12,14) + u(12) - u(14) <= 12
 constraint(133): 13 x(13,2) - u(2) + u(13) <= 12
 constraint(134): 13 x(13,3) - u(3) + u(13) <= 12
 constraint(135): 13 x(13,4) - u(4) + u(13) <= 12
 constraint(136): 13 x(13,5) - u(5) + u(13) <= 12
 constraint(137): 13 x(13,6) - u(6) + u(13) <= 12
 constraint(138): 13 x(13,7) - u(7) + u(13) <= 12
 constraint(139): 13 x(13,8) - u(8) + u(13) <= 12
 constraint(140): 13 x(13,9) - u(9) + u(13) <= 12
 constraint(141): 13 x(13,10) - u(10) + u(13) <= 12
 constraint(142): 13 x(13,11) - u(11) + u(13) <= 12
 constraint(143): 13 x(13,12) - u(12) + u(13) <= 12
 constraint(144): 13 x(13,14) + u(13) - u(14) <= 12
 constraint(145): 13 x(14,2) - u(2) + u(14) <= 12
 constraint(146): 13 x(14,3) - u(3) + u(14) <= 12
 constraint(147): 13 x(14,4) - u(4) + u(14) <= 12
 constraint(148): 13 x(14,5) - u(5) + u(14) <= 12
 constraint(149): 13 x(14,6) - u(6) + u(14) <= 12
 constraint(150): 13 x(14,7) - u(7) + u(14) <= 12
 constraint(151): 13 x(14,8) - u(8) + u(14) <= 12
 constraint(152): 13 x(14,9) - u(9) + u(14) <= 12
 constraint(153): 13 x(14,10) - u(10) + u(14) <= 12
 constraint(154): 13 x(14,11) - u(11) + u(14) <= 12
 constraint(155): 13 x(14,12) - u(12) + u(14) <= 12
 constraint(156): 13 x(14,13) - u(13) + u(14) <= 12
 ben(1):          x(2,3) + x(3,2) <= 1
 ben(2):          x(2,4) + x(4,2) <= 1
 ben(3):          x(2,5) + x(5,2) <= 1
 ben(4):          x(2,6) + x(6,2) <= 1
 ben(5):          x(2,7) + x(7,2) <= 1
 ben(6):          x(2,8) + x(8,2) <= 1
 ben(7):          x(2,9) + x(9,2) <= 1
 ben(8):          x(2,10) + x(10,2) <= 1
 ben(9):          x(2,11) + x(11,2) <= 1
 ben(10):         x(2,12) + x(12,2) <= 1
 ben(11):         x(2,13) + x(13,2) <= 1
 ben(12):         x(2,14) + x(14,2) <= 1
 ben(13):         x(2,3) + x(3,2) <= 1
 ben(14):         x(3,4) + x(4,3) <= 1
 ben(15):         x(3,5) + x(5,3) <= 1
 ben(16):         x(3,6) + x(6,3) <= 1
 ben(17):         x(3,7) + x(7,3) <= 1
 ben(18):         x(3,8) + x(8,3) <= 1
 ben(19):         x(3,9) + x(9,3) <= 1
 ben(20):         x(3,10) + x(10,3) <= 1
 ben(21):         x(3,11) + x(11,3) <= 1
 ben(22):         x(3,12) + x(12,3) <= 1
 ben(23):         x(3,13) + x(13,3) <= 1
 ben(24):         x(3,14) + x(14,3) <= 1
 ben(25):         x(2,4) + x(4,2) <= 1
 ben(26):         x(3,4) + x(4,3) <= 1
 ben(27):         x(4,5) + x(5,4) <= 1
 ben(28):         x(4,6) + x(6,4) <= 1
 ben(29):         x(4,7) + x(7,4) <= 1
 ben(30):         x(4,8) + x(8,4) <= 1
 ben(31):         x(4,9) + x(9,4) <= 1
 ben(32):         x(4,10) + x(10,4) <= 1
 ben(33):         x(4,11) + x(11,4) <= 1
 ben(34):         x(4,12) + x(12,4) <= 1
 ben(35):         x(4,13) + x(13,4) <= 1
 ben(36):         x(4,14) + x(14,4) <= 1
 ben(37):         x(2,5) + x(5,2) <= 1
 ben(38):         x(3,5) + x(5,3) <= 1
 ben(39):         x(4,5) + x(5,4) <= 1
 ben(40):         x(5,6) + x(6,5) <= 1
 ben(41):         x(5,7) + x(7,5) <= 1
 ben(42):         x(5,8) + x(8,5) <= 1
 ben(43):         x(5,9) + x(9,5) <= 1
 ben(44):         x(5,10) + x(10,5) <= 1
 ben(45):         x(5,11) + x(11,5) <= 1
 ben(46):         x(5,12) + x(12,5) <= 1
 ben(47):         x(5,13) + x(13,5) <= 1
 ben(48):         x(5,14) + x(14,5) <= 1
 ben(49):         x(2,6) + x(6,2) <= 1
 ben(50):         x(3,6) + x(6,3) <= 1
 ben(51):         x(4,6) + x(6,4) <= 1
 ben(52):         x(5,6) + x(6,5) <= 1
 ben(53):         x(6,7) + x(7,6) <= 1
 ben(54):         x(6,8) + x(8,6) <= 1
 ben(55):         x(6,9) + x(9,6) <= 1
 ben(56):         x(6,10) + x(10,6) <= 1
 ben(57):         x(6,11) + x(11,6) <= 1
 ben(58):         x(6,12) + x(12,6) <= 1
 ben(59):         x(6,13) + x(13,6) <= 1
 ben(60):         x(6,14) + x(14,6) <= 1
 ben(61):         x(2,7) + x(7,2) <= 1
 ben(62):         x(3,7) + x(7,3) <= 1
 ben(63):         x(4,7) + x(7,4) <= 1
 ben(64):         x(5,7) + x(7,5) <= 1
 ben(65):         x(6,7) + x(7,6) <= 1
 ben(66):         x(7,8) + x(8,7) <= 1
 ben(67):         x(7,9) + x(9,7) <= 1
 ben(68):         x(7,10) + x(10,7) <= 1
 ben(69):         x(7,11) + x(11,7) <= 1
 ben(70):         x(7,12) + x(12,7) <= 1
 ben(71):         x(7,13) + x(13,7) <= 1
 ben(72):         x(7,14) + x(14,7) <= 1
 ben(73):         x(2,8) + x(8,2) <= 1
 ben(74):         x(3,8) + x(8,3) <= 1
 ben(75):         x(4,8) + x(8,4) <= 1
 ben(76):         x(5,8) + x(8,5) <= 1
 ben(77):         x(6,8) + x(8,6) <= 1
 ben(78):         x(7,8) + x(8,7) <= 1
 ben(79):         x(8,9) + x(9,8) <= 1
 ben(80):         x(8,10) + x(10,8) <= 1
 ben(81):         x(8,11) + x(11,8) <= 1
 ben(82):         x(8,12) + x(12,8) <= 1
 ben(83):         x(8,13) + x(13,8) <= 1
 ben(84):         x(8,14) + x(14,8) <= 1
 ben(85):         x(2,9) + x(9,2) <= 1
 ben(86):         x(3,9) + x(9,3) <= 1
 ben(87):         x(4,9) + x(9,4) <= 1
 ben(88):         x(5,9) + x(9,5) <= 1
 ben(89):         x(6,9) + x(9,6) <= 1
 ben(90):         x(7,9) + x(9,7) <= 1
 ben(91):         x(8,9) + x(9,8) <= 1
 ben(92):         x(9,10) + x(10,9) <= 1
 ben(93):         x(9,11) + x(11,9) <= 1
 ben(94):         x(9,12) + x(12,9) <= 1
 ben(95):         x(9,13) + x(13,9) <= 1
 ben(96):         x(9,14) + x(14,9) <= 1
 ben(97):         x(2,10) + x(10,2) <= 1
 ben(98):         x(3,10) + x(10,3) <= 1
 ben(99):         x(4,10) + x(10,4) <= 1
 ben(100):        x(5,10) + x(10,5) <= 1
 ben(101):        x(6,10) + x(10,6) <= 1
 ben(102):        x(7,10) + x(10,7) <= 1
 ben(103):        x(8,10) + x(10,8) <= 1
 ben(104):        x(9,10) + x(10,9) <= 1
 ben(105):        x(10,11) + x(11,10) <= 1
 ben(106):        x(10,12) + x(12,10) <= 1
 ben(107):        x(10,13) + x(13,10) <= 1
 ben(108):        x(10,14) + x(14,10) <= 1
 ben(109):        x(2,11) + x(11,2) <= 1
 ben(110):        x(3,11) + x(11,3) <= 1
 ben(111):        x(4,11) + x(11,4) <= 1
 ben(112):        x(5,11) + x(11,5) <= 1
 ben(113):        x(6,11) + x(11,6) <= 1
 ben(114):        x(7,11) + x(11,7) <= 1
 ben(115):        x(8,11) + x(11,8) <= 1
 ben(116):        x(9,11) + x(11,9) <= 1
 ben(117):        x(10,11) + x(11,10) <= 1
 ben(118):        x(11,12) + x(12,11) <= 1
 ben(119):        x(11,13) + x(13,11) <= 1
 ben(120):        x(11,14) + x(14,11) <= 1
 ben(121):        x(2,12) + x(12,2) <= 1
 ben(122):        x(3,12) + x(12,3) <= 1
 ben(123):        x(4,12) + x(12,4) <= 1
 ben(124):        x(5,12) + x(12,5) <= 1
 ben(125):        x(6,12) + x(12,6) <= 1
 ben(126):        x(7,12) + x(12,7) <= 1
 ben(127):        x(8,12) + x(12,8) <= 1
 ben(128):        x(9,12) + x(12,9) <= 1
 ben(129):        x(10,12) + x(12,10) <= 1
 ben(130):        x(11,12) + x(12,11) <= 1
 ben(131):        x(12,13) + x(13,12) <= 1
 ben(132):        x(12,14) + x(14,12) <= 1
 ben(133):        x(2,13) + x(13,2) <= 1
 ben(134):        x(3,13) + x(13,3) <= 1
 ben(135):        x(4,13) + x(13,4) <= 1
 ben(136):        x(5,13) + x(13,5) <= 1
 ben(137):        x(6,13) + x(13,6) <= 1
 ben(138):        x(7,13) + x(13,7) <= 1
 ben(139):        x(8,13) + x(13,8) <= 1
 ben(140):        x(9,13) + x(13,9) <= 1
 ben(141):        x(10,13) + x(13,10) <= 1
 ben(142):        x(11,13) + x(13,11) <= 1
 ben(143):        x(12,13) + x(13,12) <= 1
 ben(144):        x(13,14) + x(14,13) <= 1
 ben(145):        x(2,14) + x(14,2) <= 1
 ben(146):        x(3,14) + x(14,3) <= 1
 ben(147):        x(4,14) + x(14,4) <= 1
 ben(148):        x(5,14) + x(14,5) <= 1
 ben(149):        x(6,14) + x(14,6) <= 1
 ben(150):        x(7,14) + x(14,7) <= 1
 ben(151):        x(8,14) + x(14,8) <= 1
 ben(152):        x(9,14) + x(14,9) <= 1
 ben(153):        x(10,14) + x(14,10) <= 1
 ben(154):        x(11,14) + x(14,11) <= 1
 ben(155):        x(12,14) + x(14,12) <= 1
 ben(156):        x(13,14) + x(14,13) <= 1
Bounds
      x(1,1) = 0
 0 <= x(1,2) <= 1
 0 <= x(1,3) <= 1
 0 <= x(1,4) <= 1
 0 <= x(1,5) <= 1
 0 <= x(1,6) <= 1
 0 <= x(1,7) <= 1
 0 <= x(1,8) <= 1
 0 <= x(1,9) <= 1
 0 <= x(1,10) <= 1
 0 <= x(1,11) <= 1
 0 <= x(1,12) <= 1
 0 <= x(1,13) <= 1
 0 <= x(1,14) <= 1
 0 <= x(2,1) <= 1
      x(2,2) = 0
 0 <= x(2,3) <= 1
 0 <= x(2,4) <= 1
 0 <= x(2,5) <= 1
 0 <= x(2,6) <= 1
 0 <= x(2,7) <= 1
 0 <= x(2,8) <= 1
 0 <= x(2,9) <= 1
 0 <= x(2,10) <= 1
 0 <= x(2,11) <= 1
 0 <= x(2,12) <= 1
 0 <= x(2,13) <= 1
 0 <= x(2,14) <= 1
 0 <= x(3,1) <= 1
 0 <= x(3,2) <= 1
      x(3,3) = 0
 0 <= x(3,4) <= 1
 0 <= x(3,5) <= 1
 0 <= x(3,6) <= 1
 0 <= x(3,7) <= 1
 0 <= x(3,8) <= 1
 0 <= x(3,9) <= 1
 0 <= x(3,10) <= 1
 0 <= x(3,11) <= 1
 0 <= x(3,12) <= 1
 0 <= x(3,13) <= 1
 0 <= x(3,14) <= 1
 0 <= x(4,1) <= 1
 0 <= x(4,2) <= 1
 0 <= x(4,3) <= 1
      x(4,4) = 0
 0 <= x(4,5) <= 1
 0 <= x(4,6) <= 1
 0 <= x(4,7) <= 1
 0 <= x(4,8) <= 1
 0 <= x(4,9) <= 1
 0 <= x(4,10) <= 1
 0 <= x(4,11) <= 1
 0 <= x(4,12) <= 1
 0 <= x(4,13) <= 1
 0 <= x(4,14) <= 1
 0 <= x(5,1) <= 1
 0 <= x(5,2) <= 1
 0 <= x(5,3) <= 1
 0 <= x(5,4) <= 1
      x(5,5) = 0
 0 <= x(5,6) <= 1
 0 <= x(5,7) <= 1
 0 <= x(5,8) <= 1
 0 <= x(5,9) <= 1
 0 <= x(5,10) <= 1
 0 <= x(5,11) <= 1
 0 <= x(5,12) <= 1
 0 <= x(5,13) <= 1
 0 <= x(5,14) <= 1
 0 <= x(6,1) <= 1
 0 <= x(6,2) <= 1
 0 <= x(6,3) <= 1
 0 <= x(6,4) <= 1
 0 <= x(6,5) <= 1
      x(6,6) = 0
 0 <= x(6,7) <= 1
 0 <= x(6,8) <= 1
 0 <= x(6,9) <= 1
 0 <= x(6,10) <= 1
 0 <= x(6,11) <= 1
 0 <= x(6,12) <= 1
 0 <= x(6,13) <= 1
 0 <= x(6,14) <= 1
 0 <= x(7,1) <= 1
 0 <= x(7,2) <= 1
 0 <= x(7,3) <= 1
 0 <= x(7,4) <= 1
 0 <= x(7,5) <= 1
 0 <= x(7,6) <= 1
      x(7,7) = 0
 0 <= x(7,8) <= 1
 0 <= x(7,9) <= 1
 0 <= x(7,10) <= 1
 0 <= x(7,11) <= 1
 0 <= x(7,12) <= 1
 0 <= x(7,13) <= 1
 0 <= x(7,14) <= 1
 0 <= x(8,1) <= 1
 0 <= x(8,2) <= 1
 0 <= x(8,3) <= 1
 0 <= x(8,4) <= 1
 0 <= x(8,5) <= 1
 0 <= x(8,6) <= 1
 0 <= x(8,7) <= 1
      x(8,8) = 0
 0 <= x(8,9) <= 1
 0 <= x(8,10) <= 1
 0 <= x(8,11) <= 1
 0 <= x(8,12) <= 1
 0 <= x(8,13) <= 1
 0 <= x(8,14) <= 1
 0 <= x(9,1) <= 1
 0 <= x(9,2) <= 1
 0 <= x(9,3) <= 1
 0 <= x(9,4) <= 1
 0 <= x(9,5) <= 1
 0 <= x(9,6) <= 1
 0 <= x(9,7) <= 1
 0 <= x(9,8) <= 1
      x(9,9) = 0
 0 <= x(9,10) <= 1
 0 <= x(9,11) <= 1
 0 <= x(9,12) <= 1
 0 <= x(9,13) <= 1
 0 <= x(9,14) <= 1
 0 <= x(10,1) <= 1
 0 <= x(10,2) <= 1
 0 <= x(10,3) <= 1
 0 <= x(10,4) <= 1
 0 <= x(10,5) <= 1
 0 <= x(10,6) <= 1
 0 <= x(10,7) <= 1
 0 <= x(10,8) <= 1
 0 <= x(10,9) <= 1
      x(10,10) = 0
 0 <= x(10,11) <= 1
 0 <= x(10,12) <= 1
 0 <= x(10,13) <= 1
 0 <= x(10,14) <= 1
 0 <= x(11,1) <= 1
 0 <= x(11,2) <= 1
 0 <= x(11,3) <= 1
 0 <= x(11,4) <= 1
 0 <= x(11,5) <= 1
 0 <= x(11,6) <= 1
 0 <= x(11,7) <= 1
 0 <= x(11,8) <= 1
 0 <= x(11,9) <= 1
 0 <= x(11,10) <= 1
      x(11,11) = 0
 0 <= x(11,12) <= 1
 0 <= x(11,13) <= 1
 0 <= x(11,14) <= 1
 0 <= x(12,1) <= 1
 0 <= x(12,2) <= 1
 0 <= x(12,3) <= 1
 0 <= x(12,4) <= 1
 0 <= x(12,5) <= 1
 0 <= x(12,6) <= 1
 0 <= x(12,7) <= 1
 0 <= x(12,8) <= 1
 0 <= x(12,9) <= 1
 0 <= x(12,10) <= 1
 0 <= x(12,11) <= 1
      x(12,12) = 0
 0 <= x(12,13) <= 1
 0 <= x(12,14) <= 1
 0 <= x(13,1) <= 1
 0 <= x(13,2) <= 1
 0 <= x(13,3) <= 1
 0 <= x(13,4) <= 1
 0 <= x(13,5) <= 1
 0 <= x(13,6) <= 1
 0 <= x(13,7) <= 1
 0 <= x(13,8) <= 1
 0 <= x(13,9) <= 1
 0 <= x(13,10) <= 1
 0 <= x(13,11) <= 1
 0 <= x(13,12) <= 1
      x(13,13) = 0
 0 <= x(13,14) <= 1
 0 <= x(14,1) <= 1
 0 <= x(14,2) <= 1
 0 <= x(14,3) <= 1
 0 <= x(14,4) <= 1
 0 <= x(14,5) <= 1
 0 <= x(14,6) <= 1
 0 <= x(14,7) <= 1
 0 <= x(14,8) <= 1
 0 <= x(14,9) <= 1
 0 <= x(14,10) <= 1
 0 <= x(14,11) <= 1
 0 <= x(14,12) <= 1
 0 <= x(14,13) <= 1
      x(14,14) = 0
      u(1) = 0
 0 <= u(2) <= 12
 0 <= u(3) <= 12
 0 <= u(4) <= 12
 0 <= u(5) <= 12
 0 <= u(6) <= 12
 0 <= u(7) <= 12
 0 <= u(8) <= 12
 0 <= u(9) <= 12
 0 <= u(10) <= 12
 0 <= u(11) <= 12
 0 <= u(12) <= 12
 0 <= u(13) <= 12
 0 <= u(14) <= 12
Binaries
 x(1,1)  x(1,2)  x(1,3)  x(1,4)  x(1,5)  x(1,6)  x(1,7)  x(1,8)  x(1,9) 
 x(1,10)  x(1,11)  x(1,12)  x(1,13)  x(1,14)  x(2,1)  x(2,2)  x(2,3)  x(2,4) 
 x(2,5)  x(2,6)  x(2,7)  x(2,8)  x(2,9)  x(2,10)  x(2,11)  x(2,12)  x(2,13) 
 x(2,14)  x(3,1)  x(3,2)  x(3,3)  x(3,4)  x(3,5)  x(3,6)  x(3,7)  x(3,8) 
 x(3,9)  x(3,10)  x(3,11)  x(3,12)  x(3,13)  x(3,14)  x(4,1)  x(4,2)  x(4,3) 
 x(4,4)  x(4,5)  x(4,6)  x(4,7)  x(4,8)  x(4,9)  x(4,10)  x(4,11)  x(4,12) 
 x(4,13)  x(4,14)  x(5,1)  x(5,2)  x(5,3)  x(5,4)  x(5,5)  x(5,6)  x(5,7) 
 x(5,8)  x(5,9)  x(5,10)  x(5,11)  x(5,12)  x(5,13)  x(5,14)  x(6,1)  x(6,2) 
 x(6,3)  x(6,4)  x(6,5)  x(6,6)  x(6,7)  x(6,8)  x(6,9)  x(6,10)  x(6,11) 
 x(6,12)  x(6,13)  x(6,14)  x(7,1)  x(7,2)  x(7,3)  x(7,4)  x(7,5)  x(7,6) 
 x(7,7)  x(7,8)  x(7,9)  x(7,10)  x(7,11)  x(7,12)  x(7,13)  x(7,14)  x(8,1) 
 x(8,2)  x(8,3)  x(8,4)  x(8,5)  x(8,6)  x(8,7)  x(8,8)  x(8,9)  x(8,10) 
 x(8,11)  x(8,12)  x(8,13)  x(8,14)  x(9,1)  x(9,2)  x(9,3)  x(9,4)  x(9,5) 
 x(9,6)  x(9,7)  x(9,8)  x(9,9)  x(9,10)  x(9,11)  x(9,12)  x(9,13)  x(9,14) 
 x(10,1)  x(10,2)  x(10,3)  x(10,4)  x(10,5)  x(10,6)  x(10,7)  x(10,8) 
 x(10,9)  x(10,10)  x(10,11)  x(10,12)  x(10,13)  x(10,14)  x(11,1)  x(11,2) 
 x(11,3)  x(11,4)  x(11,5)  x(11,6)  x(11,7)  x(11,8)  x(11,9)  x(11,10) 
 x(11,11)  x(11,12)  x(11,13)  x(11,14)  x(12,1)  x(12,2)  x(12,3)  x(12,4) 
 x(12,5)  x(12,6)  x(12,7)  x(12,8)  x(12,9)  x(12,10)  x(12,11)  x(12,12) 
 x(12,13)  x(12,14)  x(13,1)  x(13,2)  x(13,3)  x(13,4)  x(13,5)  x(13,6) 
 x(13,7)  x(13,8)  x(13,9)  x(13,10)  x(13,11)  x(13,12)  x(13,13)  x(13,14) 
 x(14,1)  x(14,2)  x(14,3)  x(14,4)  x(14,5)  x(14,6)  x(14,7)  x(14,8) 
 x(14,9)  x(14,10)  x(14,11)  x(14,12)  x(14,13)  x(14,14) 
Generals
 u(1)  u(2)  u(3)  u(4)  u(5)  u(6)  u(7)  u(8)  u(9)  u(10)  u(11)  u(12) 
 u(13)  u(14) 
End
